(set-logic QF_S)
(declare-fun var_0xINPUT_25499 () String)
(assert (and (= (len var_0xINPUT_25499) 0) (= (len var_0xINPUT_25499) 0) (not (= var_0xINPUT_25499 "Example:")) (= (len var_0xINPUT_25499) 0) (not (= var_0xINPUT_25499 "4PH2ujcENG"))))
(check-sat var_0xINPUT_25499)